(set-logic BV)
(set-info :status unknown)
(declare-fun ex_25 () (_ BitVec 1))
(declare-fun ex_24 () (_ BitVec 1))
(declare-fun ex_23 () (_ BitVec 1))
(declare-fun ex_22 () (_ BitVec 1))
(declare-fun ex_21 () (_ BitVec 1))
(declare-fun ex_20 () (_ BitVec 1))
(declare-fun ex_19 () (_ BitVec 1))
(declare-fun ex_18 () (_ BitVec 1))
(declare-fun ex_17 () (_ BitVec 1))
(declare-fun ex_16 () (_ BitVec 1))
(declare-fun ex_15 () (_ BitVec 1))
(declare-fun ex_14 () (_ BitVec 1))
(declare-fun ex_13 () (_ BitVec 1))
(declare-fun ex_12 () (_ BitVec 1))
(declare-fun ex_11 () (_ BitVec 1))
(declare-fun ex_10 () (_ BitVec 1))
(declare-fun ex_9 () (_ BitVec 1))
(declare-fun ex_8 () (_ BitVec 1))
(declare-fun ex_7 () (_ BitVec 1))
(declare-fun ex_6 () (_ BitVec 1))
(declare-fun ex_5 () (_ BitVec 1))
(declare-fun ex_4 () (_ BitVec 1))
(declare-fun ex_3 () (_ BitVec 1))
(declare-fun ex_2 () (_ BitVec 1))
(declare-fun ex_1 () (_ BitVec 1))
(declare-fun ez_25 () (_ BitVec 1))
(declare-fun ez_24 () (_ BitVec 1))
(declare-fun ez_23 () (_ BitVec 1))
(declare-fun ez_22 () (_ BitVec 1))
(declare-fun ez_21 () (_ BitVec 1))
(declare-fun ez_20 () (_ BitVec 1))
(declare-fun ez_19 () (_ BitVec 1))
(declare-fun ez_18 () (_ BitVec 1))
(declare-fun ez_17 () (_ BitVec 1))
(declare-fun ez_16 () (_ BitVec 1))
(declare-fun ez_15 () (_ BitVec 1))
(declare-fun ez_14 () (_ BitVec 1))
(declare-fun ez_13 () (_ BitVec 1))
(declare-fun ez_12 () (_ BitVec 1))
(declare-fun ez_11 () (_ BitVec 1))
(declare-fun ez_10 () (_ BitVec 1))
(declare-fun ez_9 () (_ BitVec 1))
(declare-fun ez_8 () (_ BitVec 1))
(declare-fun ez_7 () (_ BitVec 1))
(declare-fun ez_6 () (_ BitVec 1))
(declare-fun ez_5 () (_ BitVec 1))
(declare-fun ez_4 () (_ BitVec 1))
(declare-fun ez_3 () (_ BitVec 1))
(declare-fun ez_2 () (_ BitVec 1))
(declare-fun ez_1 () (_ BitVec 1))
(assert
 (forall ((s_1 (_ BitVec 1)) (cz_2 (_ BitVec 1)) (cz_3 (_ BitVec 1)) (cz_7 (_ BitVec 1)) (cz_8 (_ BitVec 1)) (s_2 (_ BitVec 1)) (cz_6 (_ BitVec 1)) (cz_11 (_ BitVec 1)) (cz_12 (_ BitVec 1)) (s_3 (_ BitVec 1)) (cz_4 (_ BitVec 1)) (cz_5 (_ BitVec 1)) (cz_9 (_ BitVec 1)) (cz_10 (_ BitVec 1)) (s_4 (_ BitVec 1)) (cz_13 (_ BitVec 1)) (cz_14 (_ BitVec 1)) (s_5 (_ BitVec 1)) (cz_1 (_ BitVec 1)) (s_6 (_ BitVec 1)) (cz_15 (_ BitVec 1)) (s_7 (_ BitVec 1)) (cz_17 (_ BitVec 1)) (cz_18 (_ BitVec 1)) (s_8 (_ BitVec 1)) (cz_16 (_ BitVec 1)) (cz_21 (_ BitVec 1)) (cz_22 (_ BitVec 1)) (s_9 (_ BitVec 1)) (cz_19 (_ BitVec 1)) (cz_20 (_ BitVec 1)) (s_10 (_ BitVec 1)) (cz_23 (_ BitVec 1)) (cz_24 (_ BitVec 1)) (s_11 (_ BitVec 1)) (s_12 (_ BitVec 1)) (cz_25 (_ BitVec 1)) (s_13 (_ BitVec 1)) (cx_1 (_ BitVec 1)) (cx_2 (_ BitVec 1)) (cx_6 (_ BitVec 1)) (cx_7 (_ BitVec 1)) (s_14 (_ BitVec 1)) (cx_8 (_ BitVec 1)) (cx_12 (_ BitVec 1)) (cx_13 (_ BitVec 1)) (s_15 (_ BitVec 1)) (cx_3 (_ BitVec 1)) (cx_4 (_ BitVec 1)) (cx_9 (_ BitVec 1)) (s_16 (_ BitVec 1)) (cx_10 (_ BitVec 1)) (cx_14 (_ BitVec 1)) (cx_15 (_ BitVec 1)) (s_17 (_ BitVec 1)) (s_18 (_ BitVec 1)) (cx_21 (_ BitVec 1)) (cx_22 (_ BitVec 1)) (s_19 (_ BitVec 1)) (cx_11 (_ BitVec 1)) (cx_16 (_ BitVec 1)) (cx_17 (_ BitVec 1)) (s_20 (_ BitVec 1)) (cx_18 (_ BitVec 1)) (cx_23 (_ BitVec 1)) (s_21 (_ BitVec 1)) (cx_19 (_ BitVec 1)) (s_22 (_ BitVec 1)) (cx_20 (_ BitVec 1)) (cx_24 (_ BitVec 1)) (cx_25 (_ BitVec 1)) (s_23 (_ BitVec 1)) (cx_5 (_ BitVec 1)) (s_24 (_ BitVec 1)) )(let ((?x267 (bvadd (concat (_ bv0 4) ex_1) (concat (_ bv0 4) ex_2) (concat (_ bv0 4) ex_3) (concat (_ bv0 4) ex_4) (concat (_ bv0 4) ex_5) (concat (_ bv0 4) ex_6) (concat (_ bv0 4) ex_7) (concat (_ bv0 4) ex_8) (concat (_ bv0 4) ex_9) (concat (_ bv0 4) ex_10) (concat (_ bv0 4) ex_11) (concat (_ bv0 4) ex_12) (concat (_ bv0 4) ex_13) (concat (_ bv0 4) ex_14) (concat (_ bv0 4) ex_15) (concat (_ bv0 4) ex_16) (concat (_ bv0 4) ex_17) (concat (_ bv0 4) ex_18) (concat (_ bv0 4) ex_19) (concat (_ bv0 4) ex_20) (concat (_ bv0 4) ex_21) (concat (_ bv0 4) ex_22) (concat (_ bv0 4) ex_23) (concat (_ bv0 4) ex_24) (concat (_ bv0 4) ex_25))))
 (let ((?x355 (bvadd (concat (_ bv0 1) ex_1) (concat (_ bv0 1) ex_2) (concat (_ bv0 1) ex_3) (concat (_ bv0 1) ex_4) (concat (_ bv0 1) ex_5) (concat (_ bv0 1) ex_6) (concat (_ bv0 1) ex_7) (concat (_ bv0 1) ex_8) (concat (_ bv0 1) ex_9) (concat (_ bv0 1) ex_10) (concat (_ bv0 1) ex_11) (concat (_ bv0 1) ex_12) (concat (_ bv0 1) ex_13) (concat (_ bv0 1) ex_14) (concat (_ bv0 1) ex_15) (concat (_ bv0 1) ex_16) (concat (_ bv0 1) ex_17) (concat (_ bv0 1) ex_18) (concat (_ bv0 1) ex_19) (concat (_ bv0 1) ex_20) (concat (_ bv0 1) ex_21) (concat (_ bv0 1) ex_22) (concat (_ bv0 1) ex_23) (concat (_ bv0 1) ex_24) (concat (_ bv0 1) ex_25))))
 (let (($x356 (bvule ?x355 (_ bv2 2))))
 (let (($x272 (= ((_ extract 4 2) ?x267) (_ bv0 3))))
 (let ((?x808 (ite (and $x272 $x356) ?x267 (_ bv2 5))))
 (let ((?x406 (concat (_ bv0 4) cx_25)))
 (let ((?x407 (concat (_ bv0 4) cx_24)))
 (let ((?x408 (concat (_ bv0 4) cx_23)))
 (let ((?x409 (concat (_ bv0 4) cx_22)))
 (let ((?x410 (concat (_ bv0 4) cx_21)))
 (let ((?x411 (concat (_ bv0 4) cx_20)))
 (let ((?x412 (concat (_ bv0 4) cx_19)))
 (let ((?x413 (concat (_ bv0 4) cx_18)))
 (let ((?x414 (concat (_ bv0 4) cx_17)))
 (let ((?x415 (concat (_ bv0 4) cx_16)))
 (let ((?x353 (concat (_ bv0 4) cx_15)))
 (let ((?x323 (concat (_ bv0 4) cx_14)))
 (let ((?x457 (concat (_ bv0 4) cx_13)))
 (let ((?x467 (concat (_ bv0 4) cx_12)))
 (let ((?x386 (concat (_ bv0 4) cx_11)))
 (let ((?x274 (concat (_ bv0 4) cx_10)))
 (let ((?x387 (concat (_ bv0 4) cx_9)))
 (let ((?x388 (concat (_ bv0 4) cx_8)))
 (let ((?x343 (concat (_ bv0 4) cx_7)))
 (let ((?x451 (concat (_ bv0 4) cx_6)))
 (let ((?x277 (concat (_ bv0 4) cx_5)))
 (let ((?x278 (concat (_ bv0 4) cx_4)))
 (let ((?x279 (concat (_ bv0 4) cx_3)))
 (let ((?x280 (concat (_ bv0 4) cx_2)))
 (let ((?x281 (concat (_ bv0 4) cx_1)))
 (let ((?x282 (bvadd ?x281 ?x280 ?x279 ?x278 ?x277 ?x451 ?x343 ?x388 ?x387 ?x274 ?x386 ?x467 ?x457 ?x323 ?x353 ?x415 ?x414 ?x413 ?x412 ?x411 ?x410 ?x409 ?x408 ?x407 ?x406)))
 (let ((?x383 (bvadd (concat (_ bv0 4) ez_1) (concat (_ bv0 4) ez_2) (concat (_ bv0 4) ez_3) (concat (_ bv0 4) ez_4) (concat (_ bv0 4) ez_5) (concat (_ bv0 4) ez_6) (concat (_ bv0 4) ez_7) (concat (_ bv0 4) ez_8) (concat (_ bv0 4) ez_9) (concat (_ bv0 4) ez_10) (concat (_ bv0 4) ez_11) (concat (_ bv0 4) ez_12) (concat (_ bv0 4) ez_13) (concat (_ bv0 4) ez_14) (concat (_ bv0 4) ez_15) (concat (_ bv0 4) ez_16) (concat (_ bv0 4) ez_17) (concat (_ bv0 4) ez_18) (concat (_ bv0 4) ez_19) (concat (_ bv0 4) ez_20) (concat (_ bv0 4) ez_21) (concat (_ bv0 4) ez_22) (concat (_ bv0 4) ez_23) (concat (_ bv0 4) ez_24) (concat (_ bv0 4) ez_25))))
 (let ((?x465 (bvadd (concat (_ bv0 1) ez_1) (concat (_ bv0 1) ez_2) (concat (_ bv0 1) ez_3) (concat (_ bv0 1) ez_4) (concat (_ bv0 1) ez_5) (concat (_ bv0 1) ez_6) (concat (_ bv0 1) ez_7) (concat (_ bv0 1) ez_8) (concat (_ bv0 1) ez_9) (concat (_ bv0 1) ez_10) (concat (_ bv0 1) ez_11) (concat (_ bv0 1) ez_12) (concat (_ bv0 1) ez_13) (concat (_ bv0 1) ez_14) (concat (_ bv0 1) ez_15) (concat (_ bv0 1) ez_16) (concat (_ bv0 1) ez_17) (concat (_ bv0 1) ez_18) (concat (_ bv0 1) ez_19) (concat (_ bv0 1) ez_20) (concat (_ bv0 1) ez_21) (concat (_ bv0 1) ez_22) (concat (_ bv0 1) ez_23) (concat (_ bv0 1) ez_24) (concat (_ bv0 1) ez_25))))
 (let (($x466 (bvule ?x465 (_ bv2 2))))
 (let (($x385 (= ((_ extract 4 2) ?x383) (_ bv0 3))))
 (let ((?x725 (ite (and $x385 $x466) ?x383 (_ bv2 5))))
 (let ((?x284 (concat (_ bv0 4) cz_25)))
 (let ((?x285 (concat (_ bv0 4) cz_24)))
 (let ((?x286 (concat (_ bv0 4) cz_23)))
 (let ((?x287 (concat (_ bv0 4) cz_22)))
 (let ((?x288 (concat (_ bv0 4) cz_21)))
 (let ((?x289 (concat (_ bv0 4) cz_20)))
 (let ((?x290 (concat (_ bv0 4) cz_19)))
 (let ((?x291 (concat (_ bv0 4) cz_18)))
 (let ((?x292 (concat (_ bv0 4) cz_17)))
 (let ((?x293 (concat (_ bv0 4) cz_16)))
 (let ((?x294 (concat (_ bv0 4) cz_15)))
 (let ((?x295 (concat (_ bv0 4) cz_14)))
 (let ((?x296 (concat (_ bv0 4) cz_13)))
 (let ((?x297 (concat (_ bv0 4) cz_12)))
 (let ((?x298 (concat (_ bv0 4) cz_11)))
 (let ((?x299 (concat (_ bv0 4) cz_10)))
 (let ((?x300 (concat (_ bv0 4) cz_9)))
 (let ((?x301 (concat (_ bv0 4) cz_8)))
 (let ((?x302 (concat (_ bv0 4) cz_7)))
 (let ((?x341 (concat (_ bv0 4) cz_6)))
 (let ((?x441 (concat (_ bv0 4) cz_5)))
 (let ((?x463 (concat (_ bv0 4) cz_4)))
 (let ((?x325 (concat (_ bv0 4) cz_3)))
 (let ((?x357 (concat (_ bv0 4) cz_2)))
 (let ((?x273 (concat (_ bv0 4) cz_1)))
 (let ((?x275 (bvadd ?x273 ?x357 ?x325 ?x463 ?x441 ?x341 ?x302 ?x301 ?x300 ?x299 ?x298 ?x297 ?x296 ?x295 ?x294 ?x293 ?x292 ?x291 ?x290 ?x289 ?x288 ?x287 ?x286 ?x285 ?x284)))
 (let (($x417 (= s_24 (bvadd cx_23 cx_24))))
 (let (($x309 (= s_23 (bvadd cx_4 cx_5))))
 (let (($x329 (= s_22 (bvadd cx_19 cx_20 cx_24 cx_25))))
 (let (($x449 (= s_17 (bvadd cx_2 cx_3))))
 (let (($x351 (= s_16 (bvadd cx_9 cx_10 cx_14 cx_15))))
 (let (($x423 (= s_14 (bvadd cx_7 cx_8 cx_12 cx_13))))
 (let (($x311 (= s_13 (bvadd cx_1 cx_2 cx_6 cx_7))))
 (let (($x445 (= s_12 (bvadd cz_20 cz_25))))
 (let (($x469 (= s_11 (bvadd cz_11 cz_16))))
 (let (($x471 (= s_10 (bvadd cz_18 cz_19 cz_23 cz_24))))
 (let (($x473 (= s_9 (bvadd cz_14 cz_15 cz_19 cz_20))))
 (let (($x477 (= s_7 (bvadd cz_12 cz_13 cz_17 cz_18))))
 (let (($x479 (= s_6 (bvadd cz_10 cz_15))))
 (let (($x483 (= s_4 (bvadd cz_8 cz_9 cz_13 cz_14))))
 (let (($x485 (= s_3 (bvadd cz_4 cz_5 cz_9 cz_10))))
 (let (($x489 (= s_1 (bvadd cz_2 cz_3 cz_7 cz_8))))
 (let (($x491 (= ez_1 (bvadd cz_1 cz_2 cz_3 cz_4 cz_5 ez_2 ez_3 ez_4 ez_5))))
 (let ((?x157 (bvadd ex_23 ex_24)))
 (let (($x492 (= s_24 ?x157)))
 (let ((?x154 (bvadd ex_4 ex_5)))
 (let (($x493 (= s_23 ?x154)))
 (let ((?x229 (bvadd ex_19 ex_20 ex_24 ex_25)))
 (let (($x494 (= s_22 ?x229)))
 (let ((?x227 (bvadd ex_13 ex_14 ex_18 ex_19)))
 (let (($x495 (= s_21 ?x227)))
 (let ((?x121 (bvadd ex_21 ex_22)))
 (let (($x498 (= s_18 ?x121)))
 (let ((?x116 (bvadd ex_2 ex_3)))
 (let (($x499 (= s_17 ?x116)))
 (let ((?x221 (bvadd ex_9 ex_10 ex_14 ex_15)))
 (let (($x500 (= s_16 ?x221)))
 (let ((?x217 (bvadd ex_7 ex_8 ex_12 ex_13)))
 (let (($x502 (= s_14 ?x217)))
 (let ((?x215 (bvadd ex_1 ex_2 ex_6 ex_7)))
 (let (($x503 (= s_13 ?x215)))
 (let ((?x80 (bvadd ez_20 ez_25)))
 (let (($x504 (= s_12 ?x80)))
 (let ((?x76 (bvadd ez_11 ez_16)))
 (let (($x505 (= s_11 ?x76)))
 (let ((?x213 (bvadd ez_18 ez_19 ez_23 ez_24)))
 (let (($x506 (= s_10 ?x213)))
 (let ((?x211 (bvadd ez_14 ez_15 ez_19 ez_20)))
 (let (($x507 (= s_9 ?x211)))
 (let ((?x207 (bvadd ez_12 ez_13 ez_17 ez_18)))
 (let (($x509 (= s_7 ?x207)))
 (let ((?x44 (bvadd ez_10 ez_15)))
 (let (($x510 (= s_6 ?x44)))
 (let ((?x205 (bvadd ez_8 ez_9 ez_13 ez_14)))
 (let (($x512 (= s_4 ?x205)))
 (let ((?x203 (bvadd ez_4 ez_5 ez_9 ez_10)))
 (let (($x513 (= s_3 ?x203)))
 (let ((?x199 (bvadd ez_2 ez_3 ez_7 ez_8)))
 (let (($x515 (= s_1 ?x199)))
 (let (($x516 (and $x515 (= s_2 (bvadd ez_6 ez_7 ez_11 ez_12)) $x513 $x512 (= s_5 (bvadd ez_1 ez_6)) $x510 $x509 (= s_8 (bvadd ez_16 ez_17 ez_21 ez_22)) $x507 $x506 $x505 $x504 $x503 $x502 (= s_15 (bvadd ex_3 ex_4 ex_8 ex_9)) $x500 $x499 $x498 (= s_19 (bvadd ex_11 ex_12 ex_16 ex_17)) (= s_20 (bvadd ex_17 ex_18 ex_22 ex_23)) $x495 $x494 $x493 $x492 $x491 $x489 (= s_2 (bvadd cz_6 cz_7 cz_11 cz_12)) $x485 $x483 (= s_5 (bvadd cz_1 cz_6)) $x479 $x477 (= s_8 (bvadd cz_16 cz_17 cz_21 cz_22)) $x473 $x471 $x469 $x445 $x311 $x423 (= s_15 (bvadd cx_3 cx_4 cx_8 cx_9)) $x351 $x449 (= s_18 (bvadd cx_21 cx_22)) (= s_19 (bvadd cx_11 cx_12 cx_16 cx_17)) (= s_20 (bvadd cx_17 cx_18 cx_22 cx_23)) (= s_21 (bvadd cx_13 cx_14 cx_18 cx_19)) $x329 $x309 $x417 (bvule ?x275 ?x725) (bvule ?x282 ?x808))))
 (let (($x468 (and $x272 $x356 $x385 $x466)))
 (and $x468 (not $x516))))))))))))))))))))))))))))))))))))))))))))))))))))))))))))))))))))))))))))))))))))))))))))))))))))))))))))))))))))))))
 )
(check-sat)